\ SOS test - see sparse.zpl for documentation
\Problem name: sparse2.lp
Maximize
 obj:  + z#1 + z#2 + z#3 + z#4 + z#5 + z#6
  + z#7 + z#8 + z#9 + z#10 + z#11 + z#12
  + z#13 + z#14 + z#15 + z#16 + z#17 + z#18
  + z#19 + z#20 + z#21 + z#22 + z#23 + z#24
  + z#25 + z#26 + z#27 + z#28 + z#29 + z#30
  + z#31 + z#32
Subject to
 rhs_1:
  +0.25 x#32 +0.25 x#31 +0.25 x#30 +0.25 x#29 +0.25 x#28 +0.25 x#27
  +0.25 x#26 +0.25 x#25 +0.25 x#24 +0.25 x#23 +0.25 x#22 +0.25 x#21
  +0.25 x#20 +0.25 x#19 +0.25 x#18 +0.25 x#17 + x#1 <= 0.18659197333039
 rhs_2:
  -0.25 x#32 +0.25 x#31 -0.25 x#30 +0.25 x#29 -0.25 x#28 +0.25 x#27
  -0.25 x#26 +0.25 x#25 -0.25 x#24 +0.25 x#23 -0.25 x#22 +0.25 x#21
  -0.25 x#20 +0.25 x#19 -0.25 x#18 +0.25 x#17 + x#2 <= -0.00834827151313
 rhs_3:
  -0.25 x#32 -0.25 x#31 +0.25 x#30 +0.25 x#29 -0.25 x#28 -0.25 x#27
  +0.25 x#26 +0.25 x#25 -0.25 x#24 -0.25 x#23 +0.25 x#22 +0.25 x#21
  -0.25 x#20 -0.25 x#19 +0.25 x#18 +0.25 x#17 + x#3 <= 0.39862712549545
 rhs_4:
  +0.25 x#32 -0.25 x#31 -0.25 x#30 +0.25 x#29 +0.25 x#28 -0.25 x#27
  -0.25 x#26 +0.25 x#25 +0.25 x#24 -0.25 x#23 -0.25 x#22 +0.25 x#21
  +0.25 x#20 -0.25 x#19 -0.25 x#18 +0.25 x#17 + x#4 <= -0.00834827151313
 rhs_5:
  -0.25 x#32 -0.25 x#31 -0.25 x#30 -0.25 x#29 +0.25 x#28 +0.25 x#27
  +0.25 x#26 +0.25 x#25 -0.25 x#24 -0.25 x#23 -0.25 x#22 -0.25 x#21
  +0.25 x#20 +0.25 x#19 +0.25 x#18 +0.25 x#17 + x#5 <= 0.38048049291607
 rhs_6:
  +0.25 x#32 -0.25 x#31 +0.25 x#30 -0.25 x#29 -0.25 x#28 +0.25 x#27
  -0.25 x#26 +0.25 x#25 +0.25 x#24 -0.25 x#23 +0.25 x#22 -0.25 x#21
  -0.25 x#20 +0.25 x#19 -0.25 x#18 +0.25 x#17 + x#6 <= -0.05234182480303
 rhs_7:
  +0.25 x#32 +0.25 x#31 -0.25 x#30 -0.25 x#29 -0.25 x#28 -0.25 x#27
  +0.25 x#26 +0.25 x#25 +0.25 x#24 +0.25 x#23 -0.25 x#22 -0.25 x#21
  -0.25 x#20 -0.25 x#19 +0.25 x#18 +0.25 x#17 + x#7 <= 0.14259842004049
 rhs_8:
  -0.25 x#32 +0.25 x#31 +0.25 x#30 -0.25 x#29 +0.25 x#28 -0.25 x#27
  -0.25 x#26 +0.25 x#25 -0.25 x#24 +0.25 x#23 +0.25 x#22 -0.25 x#21
  +0.25 x#20 -0.25 x#19 -0.25 x#18 +0.25 x#17 + x#8 <= -1.06010521648129
 rhs_9:
  -0.25 x#32 -0.25 x#31 -0.25 x#30 -0.25 x#29 -0.25 x#28 -0.25 x#27
  -0.25 x#26 -0.25 x#25 +0.25 x#24 +0.25 x#23 +0.25 x#22 +0.25 x#21
  +0.25 x#20 +0.25 x#19 +0.25 x#18 +0.25 x#17 + x#9 <= 0.18659197333039
 rhs_10:
  +0.25 x#32 -0.25 x#31 +0.25 x#30 -0.25 x#29 +0.25 x#28 -0.25 x#27
  +0.25 x#26 -0.25 x#25 -0.25 x#24 +0.25 x#23 -0.25 x#22 +0.25 x#21
  -0.25 x#20 +0.25 x#19 -0.25 x#18 +0.25 x#17 + x#10 <= -0.00834827151313
 rhs_11:
  +0.25 x#32 +0.25 x#31 -0.25 x#30 -0.25 x#29 +0.25 x#28 +0.25 x#27
  -0.25 x#26 -0.25 x#25 -0.25 x#24 -0.25 x#23 +0.25 x#22 +0.25 x#21
  -0.25 x#20 -0.25 x#19 +0.25 x#18 +0.25 x#17 + x#11 <= 0.18659197333039
 rhs_12:
  -0.25 x#32 +0.25 x#31 +0.25 x#30 -0.25 x#29 -0.25 x#28 +0.25 x#27
  +0.25 x#26 -0.25 x#25 +0.25 x#24 -0.25 x#23 -0.25 x#22 +0.25 x#21
  +0.25 x#20 -0.25 x#19 -0.25 x#18 +0.25 x#17 + x#12 <= -0.00834827151313
 rhs_13:
  +0.25 x#32 +0.25 x#31 +0.25 x#30 +0.25 x#29 -0.25 x#28 -0.25 x#27
  -0.25 x#26 -0.25 x#25 -0.25 x#24 -0.25 x#23 -0.25 x#22 -0.25 x#21
  +0.25 x#20 +0.25 x#19 +0.25 x#18 +0.25 x#17 + x#13 <= -0.59944633209311
 rhs_14:
  -0.25 x#32 +0.25 x#31 -0.25 x#30 +0.25 x#29 +0.25 x#28 -0.25 x#27
  +0.25 x#26 -0.25 x#25 +0.25 x#24 -0.25 x#23 +0.25 x#22 -0.25 x#21
  -0.25 x#20 +0.25 x#19 -0.25 x#18 +0.25 x#17 + x#14 <= -0.05234182480303
 rhs_15:
  -0.25 x#32 -0.25 x#31 +0.25 x#30 +0.25 x#29 +0.25 x#28 +0.25 x#27
  -0.25 x#26 -0.25 x#25 +0.25 x#24 +0.25 x#23 -0.25 x#22 -0.25 x#21
  -0.25 x#20 -0.25 x#19 +0.25 x#18 +0.25 x#17 + x#15 <= 1.22489337319583
 rhs_16:
  +0.25 x#32 -0.25 x#31 -0.25 x#30 +0.25 x#29 -0.25 x#28 +0.25 x#27
  +0.25 x#26 -0.25 x#25 -0.25 x#24 +0.25 x#23 +0.25 x#22 -0.25 x#21
  +0.25 x#20 -0.25 x#19 -0.25 x#18 +0.25 x#17 + x#16 <= -0.05234182480303
 lhs_1:
  +0.25 x#32 +0.25 x#31 +0.25 x#30 +0.25 x#29 +0.25 x#28 +0.25 x#27
  +0.25 x#26 +0.25 x#25 +0.25 x#24 +0.25 x#23 +0.25 x#22 +0.25 x#21
  +0.25 x#20 +0.25 x#19 +0.25 x#18 +0.25 x#17 + x#1 >= -0.01340802666961
 lhs_2:
  -0.25 x#32 +0.25 x#31 -0.25 x#30 +0.25 x#29 -0.25 x#28 +0.25 x#27
  -0.25 x#26 +0.25 x#25 -0.25 x#24 +0.25 x#23 -0.25 x#22 +0.25 x#21
  -0.25 x#20 +0.25 x#19 -0.25 x#18 +0.25 x#17 + x#2 >= -0.20834827151313
 lhs_3:
  -0.25 x#32 -0.25 x#31 +0.25 x#30 +0.25 x#29 -0.25 x#28 -0.25 x#27
  +0.25 x#26 +0.25 x#25 -0.25 x#24 -0.25 x#23 +0.25 x#22 +0.25 x#21
  -0.25 x#20 -0.25 x#19 +0.25 x#18 +0.25 x#17 + x#3 >= 0.19862712549545
 lhs_4:
  +0.25 x#32 -0.25 x#31 -0.25 x#30 +0.25 x#29 +0.25 x#28 -0.25 x#27
  -0.25 x#26 +0.25 x#25 +0.25 x#24 -0.25 x#23 -0.25 x#22 +0.25 x#21
  +0.25 x#20 -0.25 x#19 -0.25 x#18 +0.25 x#17 + x#4 >= -0.20834827151313
 lhs_5:
  -0.25 x#32 -0.25 x#31 -0.25 x#30 -0.25 x#29 +0.25 x#28 +0.25 x#27
  +0.25 x#26 +0.25 x#25 -0.25 x#24 -0.25 x#23 -0.25 x#22 -0.25 x#21
  +0.25 x#20 +0.25 x#19 +0.25 x#18 +0.25 x#17 + x#5 >= 0.18048049291607
 lhs_6:
  +0.25 x#32 -0.25 x#31 +0.25 x#30 -0.25 x#29 -0.25 x#28 +0.25 x#27
  -0.25 x#26 +0.25 x#25 +0.25 x#24 -0.25 x#23 +0.25 x#22 -0.25 x#21
  -0.25 x#20 +0.25 x#19 -0.25 x#18 +0.25 x#17 + x#6 >= -0.25234182480303
 lhs_7:
  +0.25 x#32 +0.25 x#31 -0.25 x#30 -0.25 x#29 -0.25 x#28 -0.25 x#27
  +0.25 x#26 +0.25 x#25 +0.25 x#24 +0.25 x#23 -0.25 x#22 -0.25 x#21
  -0.25 x#20 -0.25 x#19 +0.25 x#18 +0.25 x#17 + x#7 >= -0.05740157995951
 lhs_8:
  -0.25 x#32 +0.25 x#31 +0.25 x#30 -0.25 x#29 +0.25 x#28 -0.25 x#27
  -0.25 x#26 +0.25 x#25 -0.25 x#24 +0.25 x#23 +0.25 x#22 -0.25 x#21
  +0.25 x#20 -0.25 x#19 -0.25 x#18 +0.25 x#17 + x#8 >= -1.26010521648129
 lhs_9:
  -0.25 x#32 -0.25 x#31 -0.25 x#30 -0.25 x#29 -0.25 x#28 -0.25 x#27
  -0.25 x#26 -0.25 x#25 +0.25 x#24 +0.25 x#23 +0.25 x#22 +0.25 x#21
  +0.25 x#20 +0.25 x#19 +0.25 x#18 +0.25 x#17 + x#9 >= -0.01340802666961
 lhs_10:
  +0.25 x#32 -0.25 x#31 +0.25 x#30 -0.25 x#29 +0.25 x#28 -0.25 x#27
  +0.25 x#26 -0.25 x#25 -0.25 x#24 +0.25 x#23 -0.25 x#22 +0.25 x#21
  -0.25 x#20 +0.25 x#19 -0.25 x#18 +0.25 x#17 + x#10 >= -0.20834827151313
 lhs_11:
  +0.25 x#32 +0.25 x#31 -0.25 x#30 -0.25 x#29 +0.25 x#28 +0.25 x#27
  -0.25 x#26 -0.25 x#25 -0.25 x#24 -0.25 x#23 +0.25 x#22 +0.25 x#21
  -0.25 x#20 -0.25 x#19 +0.25 x#18 +0.25 x#17 + x#11 >= -0.01340802666961
 lhs_12:
  -0.25 x#32 +0.25 x#31 +0.25 x#30 -0.25 x#29 -0.25 x#28 +0.25 x#27
  +0.25 x#26 -0.25 x#25 +0.25 x#24 -0.25 x#23 -0.25 x#22 +0.25 x#21
  +0.25 x#20 -0.25 x#19 -0.25 x#18 +0.25 x#17 + x#12 >= -0.20834827151313
 lhs_13:
  +0.25 x#32 +0.25 x#31 +0.25 x#30 +0.25 x#29 -0.25 x#28 -0.25 x#27
  -0.25 x#26 -0.25 x#25 -0.25 x#24 -0.25 x#23 -0.25 x#22 -0.25 x#21
  +0.25 x#20 +0.25 x#19 +0.25 x#18 +0.25 x#17 + x#13 >= -0.79944633209311
 lhs_14:
  -0.25 x#32 +0.25 x#31 -0.25 x#30 +0.25 x#29 +0.25 x#28 -0.25 x#27
  +0.25 x#26 -0.25 x#25 +0.25 x#24 -0.25 x#23 +0.25 x#22 -0.25 x#21
  -0.25 x#20 +0.25 x#19 -0.25 x#18 +0.25 x#17 + x#14 >= -0.25234182480303
 lhs_15:
  -0.25 x#32 -0.25 x#31 +0.25 x#30 +0.25 x#29 +0.25 x#28 +0.25 x#27
  -0.25 x#26 -0.25 x#25 +0.25 x#24 +0.25 x#23 -0.25 x#22 -0.25 x#21
  -0.25 x#20 -0.25 x#19 +0.25 x#18 +0.25 x#17 + x#15 >= 1.02489337319583
 lhs_16:
  +0.25 x#32 -0.25 x#31 -0.25 x#30 +0.25 x#29 -0.25 x#28 +0.25 x#27
  +0.25 x#26 -0.25 x#25 -0.25 x#24 +0.25 x#23 +0.25 x#22 -0.25 x#21
  +0.25 x#20 -0.25 x#19 -0.25 x#18 +0.25 x#17 + x#16 >= -0.25234182480303
Bounds
 -inf <= x#1 <= +inf
 -inf <= x#2 <= +inf
 -inf <= x#3 <= +inf
 -inf <= x#4 <= +inf
 -inf <= x#5 <= +inf
 -inf <= x#6 <= +inf
 -inf <= x#7 <= +inf
 -inf <= x#8 <= +inf
 -inf <= x#9 <= +inf
 -inf <= x#10 <= +inf
 -inf <= x#11 <= +inf
 -inf <= x#12 <= +inf
 -inf <= x#13 <= +inf
 -inf <= x#14 <= +inf
 -inf <= x#15 <= +inf
 -inf <= x#16 <= +inf
 -inf <= x#17 <= +inf
 -inf <= x#18 <= +inf
 -inf <= x#19 <= +inf
 -inf <= x#20 <= +inf
 -inf <= x#21 <= +inf
 -inf <= x#22 <= +inf
 -inf <= x#23 <= +inf
 -inf <= x#24 <= +inf
 -inf <= x#25 <= +inf
 -inf <= x#26 <= +inf
 -inf <= x#27 <= +inf
 -inf <= x#28 <= +inf
 -inf <= x#29 <= +inf
 -inf <= x#30 <= +inf
 -inf <= x#31 <= +inf
 -inf <= x#32 <= +inf
 0 <= z#1 <= 1
 0 <= z#2 <= 1
 0 <= z#3 <= 1
 0 <= z#4 <= 1
 0 <= z#5 <= 1
 0 <= z#6 <= 1
 0 <= z#7 <= 1
 0 <= z#8 <= 1
 0 <= z#9 <= 1
 0 <= z#10 <= 1
 0 <= z#11 <= 1
 0 <= z#12 <= 1
 0 <= z#13 <= 1
 0 <= z#14 <= 1
 0 <= z#15 <= 1
 0 <= z#16 <= 1
 0 <= z#17 <= 1
 0 <= z#18 <= 1
 0 <= z#19 <= 1
 0 <= z#20 <= 1
 0 <= z#21 <= 1
 0 <= z#22 <= 1
 0 <= z#23 <= 1
 0 <= z#24 <= 1
 0 <= z#25 <= 1
 0 <= z#26 <= 1
 0 <= z#27 <= 1
 0 <= z#28 <= 1
 0 <= z#29 <= 1
 0 <= z#30 <= 1
 0 <= z#31 <= 1
 0 <= z#32 <= 1
General
 z#1
 z#2
 z#3
 z#4
 z#5
 z#6
 z#7
 z#8
 z#9
 z#10
 z#11
 z#12
 z#13
 z#14
 z#15
 z#16
 z#17
 z#18
 z#19
 z#20
 z#21
 z#22
 z#23
 z#24
 z#25
 z#26
 z#27
 z#28
 z#29
 z#30
 z#31
 z#32
SOS 
 S1:: x#1:1  z#1:2
 S1:: x#2:1  z#2:2
 S1:: x#3:1  z#3:2
 S1:: x#4:1  z#4:2
 S1:: x#5:1  z#5:2
 S1:: x#6:1  z#6:2
 S1:: x#7:1  z#7:2
 S1:: x#8:1  z#8:2
 S1:: x#9:1  z#9:2
 S1:: x#10:1 z#10:2
 S1:: x#11:1 z#11:2
 S1:: x#12:1 z#12:2
 S1:: x#13:1 z#13:2
 S1:: x#14:1 z#14:2
 S1:: x#15:1 z#15:2
 S1:: x#16:1 z#16:2
 S1:: x#17:1 z#17:2
 S1:: x#18:1 z#18:2
 S1:: x#19:1 z#19:2
 S1:: x#20:1 z#20:2
 S1:: x#21:1 z#21:2
 S1:: x#22:1 z#22:2
 S1:: x#23:1 z#23:2
 S1:: x#24:1 z#24:2
 S1:: x#25:1 z#25:2
 S1:: x#26:1 z#26:2
 S1:: x#27:1 z#27:2
 S1:: x#28:1 z#28:2
 S1:: x#29:1 z#29:2
 S1:: x#30:1 z#30:2
 S1:: x#31:1 z#31:2
 S1:: x#32:1 z#32:2
End
